000 000 000 000 -99 000 000 000 -99 -99 -99 -99 -99 000 -99 -99 -99 -99 000 000 000 000 -99 000 000 000 000 000 000 -99 000
000 000 000 000 000 000 000 000 -99 -99 -99 -99 -99 -99 000 000 -99 -99 -99 000 000 000 000 -99 -99 000 000 000 -99 -99 000
000 000 000 000 000 000 000 000 -99 000 -99 000 -99 -99 000 000 -99 000 -99 -99 000 000 000 000 -99 000 000 000 000 -99 -99
000 -99 000 000 000 000 000 000 000 000 000 000 000 -99 000 000 000 000 000 000 000 000 000 000 000 -99 000 000 000 -99 -99
000 000 000 000 000 -99 000 000 000 000 000 000 000 000 000 000 000 000 000 000 000 000 000 000 000 000 000 000 000 -99 -99
000 000 000 000 000 -99 000 000 000 000 000 000 000 000 000 000 000 000 001 001 001 002 006 008 000 000 000 000 000 -99 -99
000 000 000 000 000 000 000 000 000 000 000 000 000 000 000 000 000 000 004 008 017 028 037 050 005 001 001 -99 -99 -99 -99
000 000 000 000 000 000 000 000 000 000 000 000 000 000 000 000 000 000 005 014 020 083 064 116 034 007 -99 -99 -99 -99 -99
000 000 000 000 000 000 000 000 000 000 000 000 000 000 000 001 000 000 001 013 027 092 123 134 054 009 003 002 -99 -99 -99
000 000 000 000 000 000 000 000 000 000 000 000 000 000 001 001 002 002 001 006 030 051 105 109 134 024 005 001 004 001 000
000 000 000 000 000 000 000 000 000 000 000 000 000 000 000 000 001 002 001 002 024 030 089 121 123 052 005 001 007 002 000
000 000 000 000 000 000 000 000 000 000 000 000 000 000 000 000 000 001 001 003 015 033 098 149 118 078 017 006 009 016 006
000 000 000 000 000 000 000 000 000 000 000 000 000 000 000 000 000 001 001 004 007 021 044 094 140 100 054 020 061 091 054
000 000 000 000 000 000 000 000 000 -99 000 000 000 000 000 000 001 001 002 015 017 024 028 046 062 035 056 054 152 158 109
000 000 -99 000 000 000 000 000 000 -99 000 000 000 000 000 001 001 003 005 011 019 024 028 024 031 027 031 026 089 085 096
000 -99 000 000 000 000 000 000 000 -99 -99 -99 -99 000 000 002 002 005 008 030 056 054 020 020 024 018 015 020 058 083 134
000 -99 -99 -99 -99 000 000 000 000 -99 -99 -99 000 000 000 004 008 014 014 031 048 096 056 021 039 020 013 015 031 054 096
000 000 -99 -99 -99 000 000 000 000 -99 -99 -99 -99 000 000 004 021 047 026 057 118 158 109 058 020 010 006 010 037 050 089
000 000 000 000 -99 -99 000 000 000 -99 -99 -99 -99 000 000 002 021 066 064 134 158 195 149 118 034 012 007 007 010 018 039
000 000 000 000 000 -99 -99 000 -99 -99 000 000 -99 000 000 002 021 085 140 347 165 230 187 118 026 008 004 005 004 009 030
000 000 000 000 000 000 -99 000 000 -99 000 000 -99 000 000 002 019 031 123 158 092 114 114 030 015 004 003 -99 -99 -99 -99
000 000 000 000 000 000 000 000 000 -99 -99 -99 000 000 000 001 008 022 118 162 077 082 048 015 005 004 003 -99 -99 -99 -99
000 000 000 000 000 000 000 000 000 000 -99 000 000 000 000 000 002 010 078 118 048 039 013 007 002 -99 -99 -99 -99 -99 -99
000 000 000 000 000 000 000 000 000 000 -99 -99 000 000 000 000 001 004 035 047 027 017 006 007 003 -99 -99 -99 -99 -99 -99
000 000 000 000 000 000 000 000 000 000 000 000 000 000 000 000 002 002 008 010 011 005 002 006 -99 -99 -99 -99 -99 -99 -99
000 000 000 000 000 000 000 000 000 000 000 -99 000 000 000 000 001 001 001 002 006 002 000 -99 -99 -99 -99 -99 -99 -99 000
000 000 000 000 000 000 000 000 000 000 -99 -99 000 000 000 000 001 000 000 000 000 000 000 -99 -99 -99 -99 -99 -99 -99 000
000 000 000 000 000 000 000 000 000 -99 -99 -99 000 000 000 000 000 000 000 000 000 000 000 -99 -99 -99 -99 -99 -99 -99 000
000 000 000 -99 000 000 000 000 000 -99 -99 -99 -99 000 000 -99 -99 000 000 000 000 000 -99 -99 -99 -99 -99 -99 -99 -99 -99
000 000 -99 -99 000 000 000 000 000 -99 -99 -99 -99 000 000 -99 -99 000 000 000 -99 000 -99 -99 -99 -99 -99 -99 -99 -99 -99
000 000 000 000 000 000 000 000 000 -99 -99 -99 -99 000 000 -99 -99 -99 000 000 -99 000 -99 -99 -99 -99 -99 -99 -99 -99 -99
-99 000 -99 000 000 000 -99 -99 -99 000 -99 -99 -99 000 000 000 000 000 000 000 -99 000 000 -99 000 -99 -99 -99 -99 -99 -99
000 000 000 -99 -99 -99 -99 -99 000 000 -99 -99 -99 000 000 000 000 000 000 -99 000 000 000 000 000 -99 -99 -99 -99 000 -99
000 000 000 -99 -99 -99 -99 -99 000 000 000 -99 -99 -99 000 000 000 000 000 000 000 000 000 000 000 000 -99 000 000 000 000
000 000 000 000 000 000 000 -99 000 000 -99 -99 -99 -99 -99 -99 000 -99 -99 000 000 000 000 000 000 000 000 000 000 000 000
000 000 000 000 000 000 000 -99 000 000 -99 -99 -99 000 -99 -99 -99 -99 -99 -99 -99 000 000 000 000 000 000 000 000 000 000
000 000 000 000 000 000 000 000 000 000 000 -99 000 000 -99 -99 -99 -99 -99 -99 -99 000 000 000 000 000 000 000 000 000 000
000 000 000 000 000 000 000 000 000 000 000 000 000 000 000 -99 -99 -99 -99 000 000 000 000 000 000 000 000 000 000 000 000
000 000 000 000 000 000 000 000 000 000 000 000 000 000 000 000 000 -99 -99 000 000 000 000 000 000 000 -99 000 000 000 -99
000 000 000 000 000 000 000 000 000 -99 000 -99 000 000 000 000 000 -99 000 000 000 -99 000 000 -99 000 000 000 000 000 -99
000 000 000 000 000 000 000 -99 -99 000 000 -99 000 000 000 000 000 -99 -99 000 000 -99 000 000 -99 000 000 -99 -99 -99 -99
000 000 000 000 000 000 000 000 000 000 -99 000 000 000 000 000 -99 000 000 000 -99 -99 000 000 000 000 -99 -99 -99 -99 -99
000 000 000 000 000 000 000 000 000 000 -99 000 -99 000 000 000 000 000 000 000 000 000 000 000 000 000 -99 -99 -99 -99 -99
001 000 000 -99 000 000 000 000 000 000 000 -99 000 000 000 000 000 000 000 -99 -99 000 000 -99 000 000 -99 -99 -99 -99 -99
001 000 000 000 000 000 001 002 000 000 000 000 -99 000 000 000 000 000 000 -99 -99 000 000 000 000 -99 -99 -99 -99 -99 -99
002 002 000 000 001 005 008 014 003 000 000 000 -99 000 000 000 000 000 000 000 000 000 -99 000 000 000 000 -99 -99 -99 -99
001 002 001 000 003 018 022 020 004 000 000 000 -99 000 000 000 000 000 000 000 000 000 000 000 -99 000 000 -99 -99 -99 -99
001 002 001 001 009 016 021 018 002 000 000 000 000 000 000 -99 -99 000 000 001 000 000 000 -99 000 000 000 -99 000 -99 -99
001 001 002 002 006 006 007 003 002 000 000 000 000 000 000 000 -99 000 000 002 001 000 000 000 000 000 000 -99 000 -99 -99
000 001 002 004 006 003 002 002 001 000 000 000 000 -99 -99 -99 000 000 001 001 000 000 -99 000 000 000 -99 000 000 -99 -99
000 000 001 001 002 001 002 002 001 000 000 000 -99 -99 -99 -99 000 000 001 001 000 000 -99 -99 000 -99 -99 000 000 -99 -99
000 000 000 000 000 001 002 001 001 000 000 000 000 000 000 000 000 000 002 001 000 -99 -99 -99 -99 -99 -99 -99 -99 -99 -99
-99 000 000 000 000 001 001 001 001 000 000 000 000 000 000 000 000 000 001 000 000 -99 -99 -99 -99 -99 -99 -99 -99 -99 -99
-99 -99 000 000 000 000 001 001 001 000 000 000 000 000 000 000 000 000 000 000 000 -99 -99 -99 -99 -99 -99 -99 -99 -99 -99
-99 -99 -99 -99 000 000 000 000 001 000 000 000 000 000 000 000 000 000 000 000 000 -99 -99 -99 -99 -99 -99 -99 -99 -99 -99
